FILENAME:   /home/mcs001/s132664/testsets/IP/miplib2017/chromaticindex128-5.mps.gz
SETTINGS:   settings_final_nosym_norestarts
TIMELIMIT:  7200
OUTPUTNAME: final_miplib_symretope_if_extended_generating_set_cpx_v802__settings_final_nosym_norestarts__4__
BINNAME:    bin/sbcs.linux.x86_64.gnu.opt.cpx
BASENAME:   chromaticindex128-5.mps.gz
SEED:       4
@01 /home/mcs001/s132664/testsets/IP/miplib2017/chromaticindex128-5.mps.gz ===========
@02 chromaticindex128-5.mps.gz
@03 1686663937
SCIP version 8.0.2 [precision: 8 byte] [memory: block] [mode: optimized] [LP solver: CPLEX 20.1.0.0] [GitHash: 5f0473c]
Copyright (C) 2002-2022 Konrad-Zuse-Zentrum fuer Informationstechnik Berlin (ZIB)

Symretope propagation methods - (c) Jasper van Doornmalen, Christopher Hojny.
[GitHash: 2fd0484]

reading parameter file <../settings/settings_final_nosym_norestarts.set> ...

Changed settings:
limits/time = 7200
limits/restarts = 0
misc/usesymmetry = 0
randomization/randomseedshift = 4
constraints/orbisack/sepafreq = -1
constraints/symresack/sepafreq = -1
propagating/symmetry/detectsubgroups = FALSE
propagating/symmetry/usesymretopes = FALSE
propagating/symmetry/relabelsymretopes = 0
propagating/symmetry/ofsymcomptiming = 0
constraints/symretope/sepafreq = -1
constraints/symretope/peek = FALSE


solving problem ...

original problem has 9216 variables (9216 bin, 0 int, 0 impl, 0 cont) and 8447 constraints
presolving:
(round 1, exhaustive) 0 del vars, 0 del conss, 0 add conss, 0 chg bounds, 0 chg sides, 0 chg coeffs, 8447 upgd conss, 0 impls, 8447 clqs
   (0.2s) probing: 51/9216 (0.6%) - 0 fixings, 0 aggregations, 0 implications, 0 bound changes
   (0.2s) probing aborted: 50/50 successive totally useless probings
presolving (2 rounds: 2 fast, 2 medium, 2 exhaustive):
 0 deleted vars, 0 deleted constraints, 0 added constraints, 0 tightened bounds, 0 added holes, 0 changed sides, 0 changed coefficients
 0 implications, 8447 cliques
presolved problem has 9216 variables (9216 bin, 0 int, 0 impl, 0 cont) and 8447 constraints
   8447 constraints of type <setppc>
transformed objective value is always integral (scale: 1)
Presolving Time: 0.22

 time | node  | left  |LP iter|LP it/n|mem/heur|mdpt |vars |cons |rows |cuts |sepa|confs|strbr|  dualbound   | primalbound  |  gap   | compl. 
  0.9s|     1 |     0 |     1 |     - |    61M |   0 |9216 |8474 |8447 |   0 |  0 |  26 |   0 | 3.000000e+00 |      --      |    Inf | unknown
o 4.4s|     1 |     0 |  6201 |     - |feaspump|   0 |9216 |8475 |8447 |   0 |  0 |  27 |   0 | 3.000000e+00 | 4.000000e+00 |  33.33%| unknown
  6.3s|     1 |     0 |  6378 |     - |    74M |   0 |9216 |8585 |8448 |   1 |  1 |  27 |   0 | 3.000000e+00 | 4.000000e+00 |  33.33%| unknown
  7.2s|     1 |     0 |  6760 |     - |    77M |   0 |9216 |8586 |8450 |   3 |  2 |  28 |   0 | 3.000000e+00 | 4.000000e+00 |  33.33%| unknown
  8.1s|     1 |     0 |  7309 |     - |    81M |   0 |9216 |8587 |8452 |   5 |  3 |  29 |   0 | 3.000000e+00 | 4.000000e+00 |  33.33%| unknown
  9.3s|     1 |     0 |  7777 |     - |    89M |   0 |9216 |8588 |8454 |   7 |  4 |  30 |   0 | 3.000000e+00 | 4.000000e+00 |  33.33%| unknown
 10.4s|     1 |     0 |  8461 |     - |    93M |   0 |9216 |8589 |8456 |   9 |  5 |  31 |   0 | 3.000000e+00 | 4.000000e+00 |  33.33%| unknown
 11.5s|     1 |     0 |  8826 |     - |    99M |   0 |9216 |8590 |8457 |  10 |  6 |  32 |   0 | 3.000000e+00 | 4.000000e+00 |  33.33%| unknown
 12.5s|     1 |     0 |  9248 |     - |   103M |   0 |9216 |8591 |8459 |  12 |  7 |  33 |   0 | 3.000000e+00 | 4.000000e+00 |  33.33%| unknown
 13.5s|     1 |     0 |  9848 |     - |   105M |   0 |9216 |8592 |8461 |  14 |  8 |  34 |   0 | 3.000000e+00 | 4.000000e+00 |  33.33%| unknown
 14.7s|     1 |     0 | 10703 |     - |   109M |   0 |9216 |8593 |8467 |  20 |  9 |  35 |   0 | 3.000000e+00 | 4.000000e+00 |  33.33%| unknown
 16.4s|     1 |     0 | 11611 |     - |   112M |   0 |9216 |8594 |8469 |  22 | 10 |  36 |   0 | 3.000000e+00 | 4.000000e+00 |  33.33%| unknown
 17.3s|     1 |     0 | 12087 |     - |   115M |   0 |9216 |8595 |8471 |  24 | 11 |  37 |   0 | 3.000000e+00 | 4.000000e+00 |  33.33%| unknown
 21.9s|     1 |     2 | 13570 |     - |   115M |   0 |9216 |8600 |8471 |  24 | 11 |  42 |  11 | 3.000000e+00 | 4.000000e+00 |  33.33%| unknown
 39.8s|   100 |   101 | 43378 | 316.1 |   121M |  37 |9216 |9208 |8489 |  93 |  1 | 650 |  11 | 3.000000e+00 | 4.000000e+00 |  33.33%| unknown
 time | node  | left  |LP iter|LP it/n|mem/heur|mdpt |vars |cons |rows |cuts |sepa|confs|strbr|  dualbound   | primalbound  |  gap   | compl. 
 47.3s|   200 |   186 | 64010 | 260.9 |   125M |  41 |9216 |9788 |8479 | 100 |  1 |1230 |  11 | 3.000000e+00 | 4.000000e+00 |  33.33%| unknown
 57.1s|   300 |   280 | 83369 | 238.4 |   128M |  42 |9216 |  10k|8482 | 272 |  0 |1730 |  11 | 3.000000e+00 | 4.000000e+00 |  33.33%| unknown
 63.8s|   400 |   369 | 97308 | 213.6 |   133M |  42 |9216 |  10k|8482 | 558 |  1 |2193 |  11 | 3.000000e+00 | 4.000000e+00 |  33.33%| unknown
 77.8s|   500 |   453 |120596 | 217.5 |   137M |  48 |9216 |  10k|8489 | 815 |  1 |2637 |  11 | 3.000000e+00 | 4.000000e+00 |  33.33%| unknown
 84.5s|   600 |   525 |132678 | 201.3 |   141M |  48 |9216 |  11k|8482 |1097 |  1 |2956 |  11 | 3.000000e+00 | 4.000000e+00 |  33.33%|   0.29%
 91.7s|   700 |   617 |151709 | 199.7 |   148M |  48 |9216 |  11k|8489 |1243 |  1 |3283 |  11 | 3.000000e+00 | 4.000000e+00 |  33.33%|   0.29%
 97.5s|   800 |   676 |168889 | 196.2 |   151M |  48 |9216 |  11k|8488 |1375 |  1 |3602 |  11 | 3.000000e+00 | 4.000000e+00 |  33.33%|   0.29%
  105s|   900 |   471 |179172 | 185.9 |   155M |  48 |9216 |  11k|8502 |1806 |  0 |3623 |  11 | 3.000000e+00 | 4.000000e+00 |  33.33%|   4.11%
Restart triggered after 50 consecutive estimations that the remaining tree will be large
  111s|  1000 |     5 |197164 | 185.3 |   156M |  48 |9216 |  11k|8464 |1842 |  1 |3660 |  11 | 3.000000e+00 | 4.000000e+00 |  33.33%|  54.01%

SCIP Status        : problem is solved [optimal solution found]
Solving Time (sec) : 123.20
Solving Nodes      : 1097
Primal Bound       : +4.00000000000000e+00 (1 solutions)
Dual Bound         : +4.00000000000000e+00
Gap                : 0.00 %
SCIP Status        : problem is solved [optimal solution found]
Total Time         :     123.26
  solving          :     123.20
  presolving       :       0.22 (included in solving)
  reading          :       0.06
  copying          :       0.64 (19 #copies) (minimal 0.03, maximal 0.04, average 0.03)
Original Problem   :
  Problem name     : chromaticindex128-5
  Variables        : 9216 (9216 binary, 0 integer, 0 implicit integer, 0 continuous)
  Constraints      : 8447 initial, 8447 maximal
  Objective        : minimize, 4 non-zeros (abs.min = 1, abs.max = 1)
Presolved Problem  :
  Problem name     : t_chromaticindex128-5
  Variables        : 9216 (9216 binary, 0 integer, 0 implicit integer, 0 continuous)
  Constraints      : 8447 initial, 11509 maximal
  Objective        : minimize, 4 non-zeros (abs.min = 1, abs.max = 1)
  Nonzeros         : 33780 constraint, 33789 clique table
Presolvers         :   ExecTime  SetupTime  Calls  FixedVars   AggrVars   ChgTypes  ChgBounds   AddHoles    DelCons    AddCons   ChgSides   ChgCoefs
  boundshift       :       0.00       0.00      0          0          0          0          0          0          0          0          0          0
  convertinttobin  :       0.00       0.00      0          0          0          0          0          0          0          0          0          0
  domcol           :       0.01       0.00      1          0          0          0          0          0          0          0          0          0
  dualagg          :       0.00       0.00      0          0          0          0          0          0          0          0          0          0
  dualcomp         :       0.00       0.00      0          0          0          0          0          0          0          0          0          0
  dualinfer        :       0.00       0.00      0          0          0          0          0          0          0          0          0          0
  dualsparsify     :       0.01       0.00      1          0          0          0          0          0          0          0          0          0
  gateextraction   :       0.00       0.00      0          0          0          0          0          0          0          0          0          0
  implics          :       0.00       0.00      2          0          0          0          0          0          0          0          0          0
  inttobinary      :       0.00       0.00      0          0          0          0          0          0          0          0          0          0
  qpkktref         :       0.00       0.00      0          0          0          0          0          0          0          0          0          0
  redvub           :       0.00       0.00      0          0          0          0          0          0          0          0          0          0
  sparsify         :       0.02       0.00      1          0          0          0          0          0          0          0          0          0
  stuffing         :       0.00       0.00      0          0          0          0          0          0          0          0          0          0
  trivial          :       0.00       0.00      2          0          0          0          0          0          0          0          0          0
  tworowbnd        :       0.00       0.00      0          0          0          0          0          0          0          0          0          0
  dualfix          :       0.00       0.00      2          0          0          0          0          0          0          0          0          0
  genvbounds       :       0.00       0.00      0          0          0          0          0          0          0          0          0          0
  probing          :       0.07       0.00      1          0          0          0          0          0          0          0          0          0
  pseudoobj        :       0.00       0.00      0          0          0          0          0          0          0          0          0          0
  symmetry         :       0.00       0.00      0          0          0          0          0          0          0          0          0          0
  vbounds          :       0.01       0.00      1          0          0          0          0          0          0          0          0          0
  knapsack         :       0.00       0.00      0          0          0          0          0          0          0          0          0          0
  setppc           :       0.02       0.00      3          0          0          0          0          0          0          0          0          0
  linear           :       0.05       0.01      2          0          0          0          0          0          0          0          0          0
  logicor          :       0.00       0.00      0          0          0          0          0          0          0          0          0          0
  benders          :       0.00       0.00      0          0          0          0          0          0          0          0          0          0
  components       :       0.01       0.00      1          0          0          0          0          0          0          0          0          0
  root node        :          -          -      -          2          -          -          2          -          -          -          -          -
Constraints        :     Number  MaxNumber  #Separate #Propagate    #EnfoLP    #EnfoRelax  #EnfoPS    #Check   #ResProp    Cutoffs    DomReds       Cuts    Applied      Conss   Children
  benderslp        :          0          0          0          0        906          0          0        122          0          0          0          0          0          0          0
  integral         :          0          0          0          0        906          0          0        122          0          0          0          0          0          0       1812
  knapsack         :          0+        16          0     144412          0          0          0          0         64         17         30          0          0          0          0
  setppc           :       8447+      8453         11     171506          0          0          0        117      36761       1080      58765          0          0          0          0
  linear           :          0+       176         11     156833          0          0          0          0        343         60        186          0          0          0          0
  logicor          :          0+      2883         11      31387          0          0          0          0       2326         95       1059          0          0          0          0
  benders          :          0          0          0          0          0          0          0          2          0          0          0          0          0          0          0
  countsols        :          0          0          0          0          0          0          0          2          0          0          0          0          0          0          0
  components       :          0          0          0          0          0          0          0          0          0          0          0          0          0          0          0
Constraint Timings :  TotalTime  SetupTime   Separate  Propagate     EnfoLP     EnfoPS     EnfoRelax   Check    ResProp    SB-Prop
  benderslp        :       0.00       0.00       0.00       0.00       0.00       0.00       0.00       0.00       0.00       0.00
  integral         :       5.81       0.00       0.00       0.00       5.81       0.00       0.00       0.00       0.00       0.00
  knapsack         :       0.01       0.00       0.00       0.01       0.00       0.00       0.00       0.00       0.00       0.00
  setppc           :       0.90       0.00       0.02       0.86       0.00       0.00       0.00       0.00       0.02       0.00
  linear           :       0.04       0.01       0.00       0.03       0.00       0.00       0.00       0.00       0.00       0.00
  logicor          :       0.18       0.00       0.00       0.18       0.00       0.00       0.00       0.00       0.00       0.00
  benders          :       0.00       0.00       0.00       0.00       0.00       0.00       0.00       0.00       0.00       0.00
  countsols        :       0.00       0.00       0.00       0.00       0.00       0.00       0.00       0.00       0.00       0.00
  components       :       0.00       0.00       0.00       0.00       0.00       0.00       0.00       0.00       0.00       0.00
Propagators        : #Propagate   #ResProp    Cutoffs    DomReds
  dualfix          :          1          0          0          0
  genvbounds       :          0          0          0          0
  nlobbt           :          0          0          0          0
  obbt             :          0          0          0          0
  probing          :          0          0          0          0
  pseudoobj        :       5874       1120          0          4
  redcost          :         13          0          0          0
  rootredcost      :          0          0          0          0
  symmetry         :          0          0          0          0
  vbounds          :      78001          0          0          0
Propagator Timings :  TotalTime  SetupTime   Presolve  Propagate    ResProp    SB-Prop
  dualfix          :       0.00       0.00       0.00       0.00       0.00       0.00
  genvbounds       :       0.01       0.00       0.00       0.01       0.00       0.00
  nlobbt           :       0.00       0.00       0.00       0.00       0.00       0.00
  obbt             :       0.00       0.00       0.00       0.00       0.00       0.00
  probing          :       0.07       0.00       0.07       0.00       0.00       0.00
  pseudoobj        :       0.04       0.00       0.00       0.03       0.01       0.00
  redcost          :       0.01       0.00       0.00       0.01       0.00       0.00
  rootredcost      :       0.01       0.00       0.00       0.01       0.00       0.00
  symmetry         :       0.01       0.00       0.00       0.01       0.00       0.00
  vbounds          :       0.16       0.00       0.01       0.15       0.00       0.00
Conflict Analysis  :       Time      Calls    Success    DomReds  Conflicts   Literals    Reconvs ReconvLits   Dualrays   Nonzeros   LP Iters   (pool size: [10000,10000])
  propagation      :       0.05       1198       1197          -       4013       13.4        347       14.1          -          -          -
  infeasible LP    :       0.02         10         10          -         46       21.5          5        9.6         10       31.8          0
  bound exceed. LP :       0.14         60         59          -        232       11.6         19       14.6         59       17.5         10
  strong branching :       0.00          0          0          -          0        0.0          0        0.0          -          -          0
  pseudo solution  :       0.00          0          0          -          0        0.0          0        0.0          -          -          -
  applied globally :       0.08          -          -          0       3613        9.1          -          -         69          -          -
  applied locally  :          -          -          -          0          5       11.0          -          -          0          -          -
Separators         :   ExecTime  SetupTime      Calls  RootCalls    Cutoffs    DomReds  FoundCuts ViaPoolAdd  DirectAdd    Applied ViaPoolApp  DirectApp      Conss
  cut pool         :       0.60          -        337         21          -          -       7588      11283          -          -          -          -          -    (maximal pool size:       3994)
  aggregation      :       0.45       0.00        119         11          0          0          0          0          0          0          0          0          0
  > cmir           :          -          -          -          -          -          -          -          0          0          0          0          0          -
  > flowcover      :          -          -          -          -          -          -          -          0          0          0          0          0          -
  > knapsackcover  :          -          -          -          -          -          -          -          0          0          0          0          0          -
  cgmip            :       0.00       0.00          0          0          0          0          0          0          0          0          0          0          0
  clique           :       3.69       0.00         11         11          0          0          0          0          0          0          0          0          0
  closecuts        :       0.00       0.00          0          0          0          0          0          0          0          0          0          0          0
  convexproj       :       0.00       0.00          0          0          0          0          0          0          0          0          0          0          0
  disjunctive      :       0.00       0.00          0          0          0          0          0          0          0          0          0          0          0
  eccuts           :       0.00       0.00          0          0          0          0          0          0          0          0          0          0          0
  gauge            :       0.00       0.00          0          0          0          0          0          0          0          0          0          0          0
  gomory           :       3.42       0.00        118         10          0          0       7420       8390         12        430        427          3          0
  > gomorymi       :          -          -          -          -          -          -          -       1277          6          9          8          1          -
  > strongcg       :          -          -          -          -          -          -          -       7113          6        421        419          2          -
  impliedbounds    :       0.05       0.00        119         11          0          0          0          0          0          0          0          0          0
  interminor       :       0.00       0.00          0          0          0          0          0          0          0          0          0          0          0
  intobj           :       0.00       0.00          0          0          0          0          0          0          0          0          0          0          0
  mcf              :       0.01       0.00          1          1          0          0          0          0          0          0          0          0          0
  minor            :       0.00       0.00          0          0          0          0          0          0          0          0          0          0          0
  mixing           :       0.00       0.00          0          0          0          0          0          0          0          0          0          0          0
  oddcycle         :       0.00       0.00          0          0          0          0          0          0          0          0          0          0          0
  rapidlearning    :       4.43       0.00          9          1          0        176          0          0          0          0          0          0        180
  rlt              :       0.00       0.00         10         10          0          0          0          0          0          0          0          0          0
  zerohalf         :       8.48       0.00        119         11          0          0        320       2893        140       1591       1553         38          0
Cutselectors       :   ExecTime  SetupTime      Calls  RootCalls   Selected     Forced   Filtered  RootSelec   RootForc   RootFilt 
  hybrid           :       0.01       0.00        212         11       2021          0       9414         24          0       1827
Pricers            :   ExecTime  SetupTime      Calls       Vars
  problem variables:       0.00          -          0          0
Branching Rules    :   ExecTime  SetupTime   BranchLP  BranchExt   BranchPS    Cutoffs    DomReds       Cuts      Conss   Children
  allfullstrong    :       0.00       0.00          0          0          0          0          0          0          0          0
  cloud            :       0.00       0.00          0          0          0          0          0          0          0          0
  distribution     :       0.00       0.00          0          0          0          0          0          0          0          0
  fullstrong       :       0.00       0.00          0          0          0          0          0          0          0          0
  inference        :       0.00       0.00          0          0          0          0          0          0          0          0
  leastinf         :       0.00       0.00          0          0          0          0          0          0          0          0
  lookahead        :       0.00       0.00          0          0          0          0          0          0          0          0
  mostinf          :       0.00       0.00          0          0          0          0          0          0          0          0
  multaggr         :       0.00       0.00          0          0          0          0          0          0          0          0
  nodereopt        :       0.00       0.00          0          0          0          0          0          0          0          0
  pscost           :       0.00       0.00          0          0          0          0          0          0          0          0
  random           :       0.00       0.00          0          0          0          0          0          0          0          0
  relpscost        :       5.80       0.00        906          0          0          0          0          0          0       1812
  vanillafullstrong:       0.00       0.00          0          0          0          0          0          0          0          0
Primal Heuristics  :   ExecTime  SetupTime      Calls      Found       Best
  LP solutions     :       0.00          -          -          0          0
  relax solutions  :       0.00          -          -          0          0
  pseudo solutions :       0.00          -          -          0          0
  strong branching :       0.00          -          -          0          0
  actconsdiving    :       0.00       0.00          0          0          0
  adaptivediving   :       1.52       0.00         32          0          0
  alns             :       0.49       0.00          5          0          0
  bound            :       0.00       0.00          0          0          0
  clique           :       0.05       0.00          1          0          0
  coefdiving       :       0.00       0.00          0          0          0
  completesol      :       0.00       0.00          0          0          0
  conflictdiving   :       1.48       0.00         60          0          0
  crossover        :       0.00       0.00          0          0          0
  dins             :       0.00       0.00          0          0          0
  distributiondivin:       1.75       0.00         43          0          0
  dps              :       0.00       0.00          0          0          0
  dualval          :       0.00       0.00          0          0          0
  farkasdiving     :       0.00       0.00          0          0          0
  feaspump         :       6.37       0.00          7          1          1
  fixandinfer      :       0.00       0.00          0          0          0
  fracdiving       :       2.51       0.00         43          0          0
  gins             :       0.01       0.00          0          0          0
  guideddiving     :       3.58       0.00         65          0          0
  indicator        :       0.00       0.00          0          0          0
  intdiving        :       0.00       0.00          0          0          0
  intshifting      :       0.00       0.00          0          0          0
  linesearchdiving :       3.28       0.00         57          0          0
  localbranching   :       0.00       0.00          0          0          0
  locks            :       0.02       0.00          1          0          0
  lpface           :       0.03       0.00          0          0          0
  mpec             :       0.00       0.00          0          0          0
  multistart       :       0.00       0.00          0          0          0
  mutation         :       0.00       0.00          0          0          0
  nlpdiving        :       0.00       0.00          0          0          0
  objpscostdiving  :      14.95       0.00          2          0          0
  octane           :       0.00       0.00          0          0          0
  ofins            :       0.00       0.00          0          0          0
  oneopt           :       0.00       0.00          1          0          0
  padm             :       0.00       0.00          0          0          0
  proximity        :       0.00       0.00          0          0          0
  pscostdiving     :       1.81       0.00         31          0          0
  randrounding     :       0.27       0.00        125          0          0
  rens             :       0.00       0.00          0          0          0
  reoptsols        :       0.00       0.00          0          0          0
  repair           :       0.00       0.00          0          0          0
  rins             :       0.72       0.00          5          0          0
  rootsoldiving    :       1.11       0.00          2          0          0
  rounding         :       0.38       0.00        422          0          0
  shiftandpropagate:       0.04       0.00          1          0          0
  shifting         :       0.61       0.00        204          0          0
  simplerounding   :       0.00       0.00       1120          0          0
  subnlp           :       0.00       0.00          0          0          0
  trivial          :       0.01       0.00          2          0          0
  trivialnegation  :       0.00       0.00          0          0          0
  trustregion      :       0.00       0.00          0          0          0
  trysol           :       0.00       0.00          0          0          0
  twoopt           :       0.00       0.00          0          0          0
  undercover       :       0.00       0.00          0          0          0
  vbounds          :       0.12       0.00          1          0          0
  veclendiving     :       1.75       0.00         45          0          0
  zeroobj          :       0.00       0.00          0          0          0
  zirounding       :       0.65       0.00        905          0          0
  other solutions  :          -          -          -          0          -
LP                 :       Time      Calls Iterations  Iter/call   Iter/sec  Time-0-It Calls-0-It    ItLimit
  primal LP        :       4.13         69          0       0.00       0.00       4.13         69
  dual LP          :      44.45       1273     133392     105.20    3000.85       0.01          5
  lex dual LP      :       0.00          0          0       0.00          -
  barrier LP       :       0.00          0          0       0.00          -       0.00          0
  resolve instable :       0.00          0          0       0.00          -
  diving/probing LP:      25.89        743      88911     119.66    3434.43
  strong branching :       4.14         11      10851     986.45    2623.03          -          -         20
    (at root node) :          -         11      10851     986.45          -
  conflict analysis:       0.01          1         10      10.00          -
B&B Tree           :
  number of runs   :          1
  nodes            :       1097 (906 internal, 191 leaves)
  feasible leaves  :          0
  infeas. leaves   :         46
  objective leaves :        145
  nodes (total)    :       1097 (906 internal, 191 leaves)
  nodes left       :          0
  max depth        :         48
  max depth (total):         48
  backtracks       :        266 (24.2%)
  early backtracks :          0 (0.0%)
  nodes exc. ref.  :          0 (0.0%)
  delayed cutoffs  :        716
  repropagations   :        597 (7652 domain reductions, 29 cutoffs)
  avg switch length:       4.40
  switching time   :       4.40
Root Node          :
  First LP value   : +3.00000000000000e+00
  First LP Iters   :          1 (2.31 Iter/sec)
  First LP Time    :       0.43
  Final Dual Bound : +3.00000000000000e+00
  Final Root Iters :      12087
  Root LP Estimate : +3.19448033641594e+00
Solution           :
  Solutions found  :          1 (1 improvements)
  First Solution   : +4.00000000000000e+00   (in run 1, after 1 nodes, 4.41 seconds, depth 0, found by <feaspump>)
  Gap First Sol.   :      33.33 %
  Gap Last Sol.    :      33.33 %
  Primal Bound     : +4.00000000000000e+00   (in run 1, after 1 nodes, 4.41 seconds, depth 0, found by <feaspump>)
  Dual Bound       : +4.00000000000000e+00
  Gap              :       0.00 %
Integrals          :      Total       Avg%
  primal-dual      :    3410.72      27.68
  primal-ref       :          -          - (not evaluated)
  dual-ref         :          -          - (not evaluated)
written solution information to file <results/final_miplib_symretope_if_extended_generating_set_cpx_v802__settings_final_nosym_norestarts__4__chromaticindex128-5.mps.gz.sol>
@04 1686664060
